Costo de la solución:
 1595,37653353291 

1	1	103,106	45	0	74	71	69	70	60		0
1	2	86,868	54	0	75	73	64		0
1	3	127,868	43	0	68	56	55		0
1	4	104,275	100	0	67	66	65	59		0
1	5	108,997	93	0	72	58	38	50	31		0
1	6	94,642	102	0	45	36	57	47	37	20		0
1	7	105,319	77	0	62	42	61	43	41		0
1	8	94,127	111	0	32	51	44	25	24	18		0
1	9	99,346	65	0	33	49	63	39	23		0
1	10	89,58	106	0	52	46	34	28	22		0
1	11	103,702	116	0	54	53	35	14	11		0
1	12	68,019	70	0	48	30	21		0
1	13	80,974	71	0	27	26	19	29	15		0
1	14	93,584	71	0	40	13	10		0
1	15	92,979	103	0	6	5	2	16	1		0
1	16	48,216	49	0	17	9		0
1	17	79,624	58	0	12	8	7	3		0
1	18	0	0	0	4		0
1	19	0	0	0		0
1	20	0	0	0		0
1	21	0	0	0		0

Tiempo de ejecución:
 12,547312499999 
